letting n =  10
letting blocks =  [[1, 4], [1, 9], [2, 2], [2, 5], [2, 6], [2, 9], [3, 1], [3, 3], [3, 7], [4, 1], [4, 3], [4, 7], [5, 2], [5, 3], [5, 5], [6, 3], [6, 5], [6, 8], [7, 4], [7, 5], [7, 8], [8, 6], [8, 8], [9, 5], [9, 10], [10, 1]]
